
Gurobi 7.5.2 (linux64) logging started Sat Jul  7 16:00:06 2018

Changed value of parameter LogFile to result/ilp/simNo_8-n_100-m_40-s_4-minVAF_0.05-cov_10000-k_2-fn_0.05-fp_0.0001-na_0.15.ILP.gurobiSolverLog
   Prev: gurobi.log  Default: 
Changed value of parameter TimeLimit to 86400.0
   Prev: 1e+100  Min: 0.0  Max: 1e+100  Default: 1e+100
Optimize a model with 639293 rows, 10765 columns and 1940420 nonzeros
Variable types: 0 continuous, 10765 integer (10765 binary)
Coefficient statistics:
  Matrix range     [3e-04, 4e+00]
  Objective range  [1e-01, 9e+00]
  Bounds range     [1e+00, 1e+00]
  RHS range        [2e-01, 2e+00]
Found heuristic solution: objective -15948.01592
Presolve removed 132396 rows and 1019 columns (presolve time = 5s) ...
Presolve removed 132970 rows and 1019 columns (presolve time = 11s) ...
Presolve removed 190370 rows and 1593 columns (presolve time = 15s) ...
Presolve removed 190370 rows and 1593 columns
Presolve time: 15.86s
Presolved: 448923 rows, 9172 columns, 1349101 nonzeros
Variable types: 0 continuous, 9172 integer (9172 binary)
Presolved: 9172 rows, 458095 columns, 1358273 nonzeros

Presolve removed 9172 rows and 458095 columns

Root simplex log...

Iteration    Objective       Primal Inf.    Dual Inf.      Time
       0    7.3374017e+00   0.000000e+00   7.488500e+04     20s
    7087   -9.3705446e+01   0.000000e+00   2.225484e+05     20s
   15313   -1.4536032e+02   0.000000e+00   0.000000e+00     23s
   15313   -1.4536032e+02   0.000000e+00   0.000000e+00     23s

Root relaxation: objective -1.453603e+02, 15313 iterations, 5.85 seconds
Total elapsed time = 48.50s
Total elapsed time = 73.28s
Total elapsed time = 87.52s
Total elapsed time = 93.33s

    Nodes    |    Current Node    |     Objective Bounds      |     Work
 Expl Unexpl |  Obj  Depth IntInf | Incumbent    BestBd   Gap | It/Node Time

     0     0 -145.36032    0  674 -15948.016 -145.36032  99.1%     -   98s
H    0     0                    -228.3584199 -145.36032  36.3%     -  102s
H    0     0                    -164.7090514 -145.36032  11.7%     -  104s
     0     0 -154.13198    0  719 -164.70905 -154.13198  6.42%     -  143s
     0     0 -155.64028    0  638 -164.70905 -155.64028  5.51%     -  190s
H    0     0                    -164.0570986 -155.64028  5.13%     -  201s
     0     0 -155.91098    0  640 -164.05710 -155.91098  4.97%     -  218s
     0     0 -155.91098    0  666 -164.05710 -155.91098  4.97%     -  223s
     0     0 -156.08179    0  639 -164.05710 -156.08179  4.86%     -  405s
     0     0 -156.08179    0  727 -164.05710 -156.08179  4.86%     -  458s
     0     0 -156.10924    0  677 -164.05710 -156.10924  4.84%     -  462s
     0     0 -157.59209    0  676 -164.05710 -157.59209  3.94%     -  463s
     0     0 -158.34303    0  423 -164.05710 -158.34303  3.48%     -  465s
     0     0 -158.38649    0  424 -164.05710 -158.38649  3.46%     -  466s
     0     0 -158.57521    0  425 -164.05710 -158.57521  3.34%     -  466s
     0     0 -158.71374    0  628 -164.05710 -158.71374  3.26%     -  468s
     0     0 -158.78304    0  663 -164.05710 -158.78304  3.21%     -  469s
     0     0 -158.87889    0  602 -164.05710 -158.87889  3.16%     -  483s
     0     0 -158.87889    0  605 -164.05710 -158.87889  3.16%     -  491s
     0     0 -158.87889    0  413 -164.05710 -158.87889  3.16%     -  493s
     0     0 -158.87889    0  481 -164.05710 -158.87889  3.16%     -  494s
     0     0 -158.88616    0  513 -164.05710 -158.88616  3.15%     -  495s
     0     0 -158.88616    0  518 -164.05710 -158.88616  3.15%     -  495s
     0     0 -158.98304    0  567 -164.05710 -158.98304  3.09%     -  496s
     0     0 -159.07990    0  544 -164.05710 -159.07990  3.03%     -  496s
     0     0 -159.08432    0  574 -164.05710 -159.08432  3.03%     -  497s
     0     0 -159.08432    0  574 -164.05710 -159.08432  3.03%     -  497s
     0     0 -161.39518    0  480 -164.05710 -161.39518  1.62%     -  498s
     0     0 -161.39518    0  480 -164.05710 -161.39518  1.62%     -  498s
     0     0 -161.40044    0  333 -164.05710 -161.40044  1.62%     -  502s
     0     0 -161.40044    0  260 -164.05710 -161.40044  1.62%     -  504s
     0     0 -161.40044    0  273 -164.05710 -161.40044  1.62%     -  505s
     0     0 -161.40044    0  245 -164.05710 -161.40044  1.62%     -  505s
     0     0 -161.40044    0  285 -164.05710 -161.40044  1.62%     -  505s
     0     0 -163.14694    0  328 -164.05710 -163.14694  0.55%     -  505s
     0     0 -163.16177    0  230 -164.05710 -163.16177  0.55%     -  505s
     0     0 -163.16177    0  270 -164.05710 -163.16177  0.55%     -  505s
     0     0 -163.16177    0  208 -164.05710 -163.16177  0.55%     -  505s
     0     0 -163.16177    0  210 -164.05710 -163.16177  0.55%     -  506s
     0     0 -163.16177    0  176 -164.05710 -163.16177  0.55%     -  506s
     0     0 -163.16177    0  224 -164.05710 -163.16177  0.55%     -  506s
     0     0 -163.16177    0  225 -164.05710 -163.16177  0.55%     -  506s
     0     0 -163.16177    0  126 -164.05710 -163.16177  0.55%     -  506s
     0     0 -163.16177    0  246 -164.05710 -163.16177  0.55%     -  507s
     0     0 -163.16177    0  218 -164.05710 -163.16177  0.55%     -  507s
     0     0 -163.16177    0  249 -164.05710 -163.16177  0.55%     -  507s
     0     0 -163.16177    0  190 -164.05710 -163.16177  0.55%     -  507s
     0     0 -163.16177    0  180 -164.05710 -163.16177  0.55%     -  507s
     0     0 -163.16177    0  178 -164.05710 -163.16177  0.55%     -  508s
     0     0 -163.16177    0  178 -164.05710 -163.16177  0.55%     -  508s
     0     0 -163.16177    0  178 -164.05710 -163.16177  0.55%     -  508s
     0     0 -163.16177    0  106 -164.05710 -163.16177  0.55%     -  508s
     0     0 -163.16177    0  111 -164.05710 -163.16177  0.55%     -  508s
     0     0 -163.16177    0  103 -164.05710 -163.16177  0.55%     -  508s
     0     0 -163.16177    0  102 -164.05710 -163.16177  0.55%     -  509s
     0     2 -163.19979    0  102 -164.05710 -163.19979  0.52%     -  509s
     1     4 -163.43280    1  225 -164.05710 -163.33492  0.44%   435  510s

Cutting planes:
  Gomory: 8
  Implied bound: 6
  Clique: 9
  MIR: 6
  Zero half: 14

Explored 7 nodes (103340 simplex iterations) in 510.35 seconds
Thread count was 1 (of 80 available processors)

Solution count 8: -164.057 -164.057 -164.057 ... -15948

Optimal solution found (tolerance 1.00e-04)
Best objective -1.640570986002e+02, best bound -1.640570986002e+02, gap 0.0000%
